GeneratedTests/Random_12/Random_12_12.tsp
NAME: Random_12_12
TYPE: TSP
DIMENSION: 12
EDGE_WEIGHT_TYPE: EUC_2D
NODE_COORD_SECTION
1 21.629986 25.342255
2 23.628336 28.783241
3 33.953465 34.842964
4 0.3898816 5.989255
5 31.167215 8.296793
6 12.337305 9.221342
7 7.912435 35.335262
8 33.43356 7.8197937
9 15.924844 10.89032
10 18.892643 29.040018
11 21.298164 22.874317
12 8.678843 0.5061672
EOF
