GeneratedTests/Random_12/Random_12_12.txt
NAME: Random_12_12
TYPE: TSP
DIMENSION: 12
EDGE_WEIGHT_TYPE: EUC_2D
NODE_COORD_SECTION
1 7.348757 12.013634
2 16.842228 28.266718
3 8.406706 29.240246
4 19.668667 14.527973
5 22.156038 24.232067
6 24.149216 35.71684
7 24.368711 25.90629
8 19.976606 26.357735
9 32.37668 12.286824
10 29.351875 6.384878
11 34.798153 11.856645
12 6.846534 17.190434
EOF
